(set-info :smt-lib-version 2.6)
(set-logic QF_LRA)
(set-info :source |
The Formal Verification of a Reintegration Protocol. Author: Lee Pike. Website: http://www.cs.indiana.edu/~lepike/pub_pages/emsoft.html.

This benchmark was automatically translated into SMT-LIB format from
CVC format using CVC Lite
|)
(set-info :category "industrial")
(set-info :status unsat)
(declare-fun x_0 () Real)
(declare-fun x_1 () Bool)
(declare-fun x_2 () Real)
(declare-fun x_3 () Real)
(declare-fun x_4 () Real)
(declare-fun x_5 () Real)
(declare-fun x_6 () Bool)
(declare-fun x_7 () Real)
(declare-fun x_8 () Real)
(declare-fun x_9 () Real)
(declare-fun x_10 () Real)
(declare-fun x_11 () Bool)
(declare-fun x_12 () Real)
(declare-fun x_13 () Real)
(declare-fun x_14 () Real)
(declare-fun x_15 () Bool)
(declare-fun x_16 () Bool)
(declare-fun x_17 () Bool)
(declare-fun x_18 () Bool)
(declare-fun x_19 () Real)
(declare-fun x_20 () Real)
(declare-fun x_21 () Bool)
(declare-fun x_22 () Bool)
(declare-fun x_23 () Bool)
(declare-fun x_24 () Bool)
(declare-fun x_25 () Bool)
(declare-fun x_26 () Real)
(declare-fun x_27 () Bool)
(declare-fun x_28 () Bool)
(declare-fun x_29 () Bool)
(declare-fun x_30 () Bool)
(declare-fun x_31 () Bool)
(declare-fun x_32 () Real)
(declare-fun x_33 () Bool)
(declare-fun x_34 () Real)
(declare-fun x_35 () Bool)
(declare-fun x_36 () Bool)
(declare-fun x_37 () Bool)
(declare-fun x_38 () Bool)
(declare-fun x_39 () Real)
(declare-fun x_40 () Real)
(declare-fun x_41 () Real)
(declare-fun x_42 () Bool)
(declare-fun x_43 () Bool)
(declare-fun x_44 () Bool)
(declare-fun x_45 () Real)
(declare-fun x_46 () Bool)
(declare-fun x_47 () Bool)
(declare-fun x_48 () Bool)
(declare-fun x_49 () Bool)
(declare-fun x_50 () Bool)
(declare-fun x_51 () Bool)
(declare-fun x_52 () Bool)
(declare-fun x_53 () Bool)
(declare-fun x_54 () Real)
(declare-fun x_55 () Real)
(declare-fun x_56 () Real)
(declare-fun x_57 () Real)
(declare-fun x_58 () Real)
(declare-fun x_59 () Real)
(declare-fun x_60 () Real)
(declare-fun x_61 () Bool)
(declare-fun x_62 () Bool)
(declare-fun x_63 () Real)
(declare-fun x_64 () Real)
(declare-fun x_65 () Real)
(declare-fun x_66 () Real)
(declare-fun x_67 () Real)
(declare-fun x_68 () Real)
(declare-fun x_69 () Real)
(declare-fun x_70 () Real)
(declare-fun x_71 () Real)
(declare-fun x_72 () Real)
(declare-fun x_73 () Bool)
(declare-fun x_74 () Real)
(declare-fun x_75 () Real)
(declare-fun x_76 () Real)
(declare-fun x_77 () Bool)
(declare-fun x_78 () Bool)
(declare-fun x_79 () Bool)
(declare-fun x_80 () Bool)
(declare-fun x_81 () Bool)
(declare-fun x_82 () Real)
(declare-fun x_83 () Real)
(declare-fun x_84 () Real)
(declare-fun x_85 () Real)
(declare-fun x_86 () Bool)
(declare-fun x_87 () Real)
(declare-fun x_88 () Real)
(declare-fun x_89 () Real)
(declare-fun x_90 () Real)
(declare-fun x_91 () Real)
(declare-fun x_92 () Real)
(declare-fun x_93 () Bool)
(declare-fun x_94 () Real)
(declare-fun x_95 () Real)
(declare-fun x_96 () Real)
(declare-fun x_97 () Real)
(declare-fun x_98 () Bool)
(declare-fun x_99 () Bool)
(declare-fun x_100 () Bool)
(declare-fun x_101 () Bool)
(declare-fun x_102 () Bool)
(declare-fun x_103 () Real)
(declare-fun x_104 () Real)
(declare-fun x_105 () Real)
(declare-fun x_106 () Real)
(declare-fun x_107 () Bool)
(declare-fun x_108 () Bool)
(declare-fun x_109 () Real)
(declare-fun x_110 () Real)
(declare-fun x_111 () Real)
(declare-fun x_112 () Real)
(declare-fun x_113 () Real)
(declare-fun x_114 () Real)
(declare-fun x_115 () Bool)
(declare-fun x_116 () Real)
(declare-fun x_117 () Real)
(declare-fun x_118 () Real)
(assert (let ((?v_183 (+ x_20 x_2)) (?v_225 (<= x_19 x_7)) (?v_205 (= x_43 x_44)) (?v_155 (= x_5 0)) (?v_168 (< x_19 x_45)) (?v_190 (= x_7 x_19)) (?v_214 (= x_5 2)) (?v_216 (= x_46 x_47)) (?v_217 (and (= x_22 x_15) (= x_23 x_16))) (?v_203 (= x_48 x_49)) (?v_204 (and (= x_50 x_51) (= x_52 x_53))) (?v_218 (= x_54 x_55)) (?v_219 (and (= x_56 x_57) (= x_58 x_59))) (?v_178 (= x_60 x_45)) (?v_202 (= x_61 x_62)) (?v_200 (= x_27 x_21)) (?v_201 (and (= x_24 x_17) (= x_25 x_18))) (?v_220 (= x_6 x_1)) (?v_227 (- x_26 x_20)) (?v_156 (= x_5 1)) (?v_197 (+ x_2 x_20)) (?v_193 (<= x_63 x_7))) (let ((?v_199 (= x_46 (or x_47 (and ?v_193 x_21)))) (?v_186 (<= x_3 ?v_183)) (?v_188 (<= x_4 ?v_183)) (?v_185 (<= x_3 x_2)) (?v_187 (<= x_4 x_2)) (?v_12 (not x_15)) (?v_207 (< x_3 x_19)) (?v_208 (= x_7 x_3)) (?v_13 (not x_16)) (?v_210 (< x_4 x_19)) (?v_211 (= x_7 x_4)) (?v_171 (not x_47)) (?v_228 (not ?v_225)) (?v_180 (not x_17)) (?v_182 (not x_18)) (?v_184 (not x_21))) (let ((?v_179 (not ?v_185))) (let ((?v_191 (and ?v_179 (<= x_3 x_7))) (?v_181 (not ?v_187))) (let ((?v_192 (and ?v_181 (<= x_4 x_7)))) (let ((?v_198 (and (= x_22 (or x_15 (and ?v_191 x_17))) (= x_23 (or x_16 (and ?v_192 x_18))))) (?v_189 (<= x_63 ?v_183)) (?v_212 (< x_63 x_19)) (?v_213 (= x_7 x_63)) (?v_194 (not ?v_186)) (?v_195 (not ?v_188)) (?v_16 (and (not (<= x_63 x_2)) ?v_193)) (?v_17 (and (not (<= x_66 x_2)) (<= x_66 x_7)))) (let ((?v_196 (not ?v_189)) (?v_117 (+ x_20 x_7)) (?v_159 (<= x_26 x_12)) (?v_139 (= x_77 x_43)) (?v_91 (= x_10 0)) (?v_102 (< x_26 x_60)) (?v_124 (= x_12 x_26)) (?v_148 (= x_10 2)) (?v_150 (= x_78 x_46)) (?v_151 (and (= x_28 x_22) (= x_29 x_23))) (?v_137 (= x_79 x_48)) (?v_138 (and (= x_80 x_50) (= x_81 x_52))) (?v_152 (= x_82 x_54)) (?v_153 (and (= x_83 x_56) (= x_84 x_58))) (?v_112 (= x_85 x_60)) (?v_136 (= x_86 x_61)) (?v_134 (= x_33 x_27)) (?v_135 (and (= x_30 x_24) (= x_31 x_25))) (?v_154 (= x_11 x_6)) (?v_161 (- x_32 x_20)) (?v_92 (= x_10 1)) (?v_131 (+ x_7 x_20)) (?v_127 (<= x_74 x_12))) (let ((?v_133 (= x_78 (or x_46 (and ?v_127 x_27)))) (?v_120 (<= x_8 ?v_117)) (?v_122 (<= x_9 ?v_117)) (?v_119 (<= x_8 x_7)) (?v_121 (<= x_9 x_7)) (?v_8 (not x_22)) (?v_141 (< x_8 x_26)) (?v_142 (= x_12 x_8)) (?v_9 (not x_23)) (?v_144 (< x_9 x_26)) (?v_145 (= x_12 x_9)) (?v_105 (not x_46)) (?v_162 (not ?v_159)) (?v_114 (not x_24)) (?v_116 (not x_25)) (?v_118 (not x_27))) (let ((?v_113 (not ?v_119))) (let ((?v_125 (and ?v_113 (<= x_8 x_12))) (?v_115 (not ?v_121))) (let ((?v_126 (and ?v_115 (<= x_9 x_12)))) (let ((?v_132 (and (= x_28 (or x_22 (and ?v_125 x_24))) (= x_29 (or x_23 (and ?v_126 x_25))))) (?v_123 (<= x_74 ?v_117)) (?v_146 (< x_74 x_26)) (?v_147 (= x_12 x_74)) (?v_128 (not ?v_120)) (?v_129 (not ?v_122)) (?v_229 (not (<= x_74 x_7)))) (let ((?v_22 (and ?v_229 ?v_127)) (?v_230 (not (<= x_75 x_7)))) (let ((?v_23 (and ?v_230 (<= x_75 x_12))) (?v_130 (not ?v_123)) (?v_53 (+ x_20 x_12)) (?v_95 (<= x_32 x_97)) (?v_75 (= x_98 x_77)) (?v_33 (= x_34 0)) (?v_37 (< x_32 x_85)) (?v_60 (= x_97 x_32)) (?v_84 (= x_34 2)) (?v_86 (= x_99 x_78)) (?v_87 (and (= x_35 x_28) (= x_36 x_29))) (?v_73 (= x_100 x_79)) (?v_74 (and (= x_101 x_80) (= x_102 x_81))) (?v_88 (= x_103 x_82)) (?v_89 (and (= x_104 x_83) (= x_105 x_84))) (?v_47 (= x_106 x_85)) (?v_72 (= x_107 x_86)) (?v_70 (= x_42 x_33)) (?v_71 (and (= x_37 x_30) (= x_38 x_31))) (?v_90 (= x_108 x_11)) (?v_97 (- x_39 x_20)) (?v_48 (= x_34 1)) (?v_67 (+ x_12 x_20)) (?v_63 (<= x_94 x_97))) (let ((?v_69 (= x_99 (or x_78 (and ?v_63 x_33)))) (?v_56 (<= x_13 ?v_53)) (?v_58 (<= x_14 ?v_53)) (?v_55 (<= x_13 x_12)) (?v_57 (<= x_14 x_12)) (?v_4 (not x_28)) (?v_77 (< x_13 x_32)) (?v_78 (= x_97 x_13)) (?v_5 (not x_29)) (?v_80 (< x_14 x_32)) (?v_81 (= x_97 x_14)) (?v_40 (not x_78)) (?v_98 (not ?v_95)) (?v_50 (not x_30)) (?v_52 (not x_31)) (?v_54 (not x_33))) (let ((?v_49 (not ?v_55))) (let ((?v_61 (and ?v_49 (<= x_13 x_97))) (?v_51 (not ?v_57))) (let ((?v_62 (and ?v_51 (<= x_14 x_97)))) (let ((?v_68 (and (= x_35 (or x_28 (and ?v_61 x_30))) (= x_36 (or x_29 (and ?v_62 x_31))))) (?v_59 (<= x_94 ?v_53)) (?v_82 (< x_94 x_32)) (?v_83 (= x_97 x_94)) (?v_64 (not ?v_56)) (?v_65 (not ?v_58)) (?v_163 (not (<= x_94 x_12)))) (let ((?v_28 (and ?v_163 ?v_63)) (?v_164 (not (<= x_95 x_12)))) (let ((?v_29 (and ?v_164 (<= x_95 x_97))) (?v_66 (not ?v_59)) (?v_177 (= x_54 0)) (?v_167 (= x_54 3)) (?v_173 (= x_56 0)) (?v_165 (= x_56 3)) (?v_175 (= x_58 0)) (?v_166 (= x_58 3)) (?v_111 (= x_82 0)) (?v_101 (= x_82 3)) (?v_107 (= x_83 0)) (?v_99 (= x_83 3)) (?v_109 (= x_84 0)) (?v_100 (= x_84 3)) (?v_46 (= x_103 0)) (?v_36 (= x_103 3)) (?v_42 (= x_104 0)) (?v_34 (= x_104 3)) (?v_44 (= x_105 0)) (?v_35 (= x_105 3)) (?v_3 (not ?v_92)) (?v_93 (not x_11)) (?v_76 (< x_12 x_13)) (?v_79 (< x_12 x_14)) (?v_7 (not ?v_156)) (?v_157 (not x_6)) (?v_140 (< x_7 x_8)) (?v_143 (< x_7 x_9)) (?v_222 (= x_0 1))) (let ((?v_11 (not ?v_222)) (?v_223 (not x_1)) (?v_206 (< x_2 x_3)) (?v_209 (< x_2 x_4)) (?v_2 (not ?v_33)) (?v_0 (not x_35)) (?v_1 (not x_36)) (?v_94 (not (<= x_39 x_40))) (?v_96 (not (<= x_39 x_41))) (?v_6 (not ?v_91)) (?v_158 (not (<= x_32 x_13))) (?v_160 (not (<= x_32 x_14))) (?v_10 (not ?v_155)) (?v_224 (not (<= x_26 x_8))) (?v_226 (not (<= x_26 x_9))) (?v_221 (= x_0 0))) (let ((?v_14 (not ?v_221)) (?v_18 (and (not (<= x_69 x_2)) (<= x_69 x_7))) (?v_24 (and (not (<= x_76 x_7)) (<= x_76 x_12))) (?v_30 (and (not (<= x_96 x_12)) (<= x_96 x_97))) (?v_38 (= x_104 (ite ?v_4 (ite (and ?v_61 (< x_83 3)) (+ x_83 1) x_83) x_83))) (?v_39 (= x_105 (ite ?v_5 (ite (and ?v_62 (< x_84 3)) (+ x_84 1) x_84) x_84))) (?v_41 (or x_28 ?v_34)) (?v_43 (or x_29 ?v_35)) (?v_45 (or x_78 ?v_36)) (?v_103 (= x_83 (ite ?v_8 (ite (and ?v_125 (< x_56 3)) (+ x_56 1) x_56) x_56))) (?v_104 (= x_84 (ite ?v_9 (ite (and ?v_126 (< x_58 3)) (+ x_58 1) x_58) x_58))) (?v_106 (or x_22 ?v_99)) (?v_108 (or x_23 ?v_100)) (?v_110 (or x_46 ?v_101)) (?v_169 (= x_56 (ite ?v_12 (ite (and ?v_191 (< x_57 3)) (+ x_57 1) x_57) x_57))) (?v_170 (= x_58 (ite ?v_13 (ite (and ?v_192 (< x_59 3)) (+ x_59 1) x_59) x_59))) (?v_172 (or x_15 ?v_165)) (?v_174 (or x_16 ?v_166)) (?v_176 (or x_47 ?v_167)) (?v_15 (ite ?v_16 2 1)) (?v_19 (ite ?v_16 3 2)) (?v_20 (ite ?v_16 1 0)) (?v_21 (ite ?v_22 2 1)) (?v_25 (ite ?v_22 3 2)) (?v_26 (ite ?v_22 1 0)) (?v_27 (ite ?v_28 2 1)) (?v_31 (ite ?v_28 3 2)) (?v_32 (ite ?v_28 1 0)) (?v_85 (<= (ite x_79 (ite x_81 (ite x_80 3 2) x_109) (ite x_81 x_109 (ite x_80 1 0))) (* (* (ite x_78 (ite x_29 (ite x_28 0 1) x_110) (ite x_29 x_110 (ite x_28 2 3))) 1) (/ 1 2)))) (?v_149 (<= (ite x_48 (ite x_52 (ite x_50 3 2) x_87) (ite x_52 x_87 (ite x_50 1 0))) (* (* (ite x_46 (ite x_23 (ite x_22 0 1) x_88) (ite x_23 x_88 (ite x_22 2 3))) 1) (/ 1 2)))) (?v_215 (<= (ite x_49 (ite x_53 (ite x_51 3 2) x_64) (ite x_53 x_64 (ite x_51 1 0))) (* (* (ite x_47 (ite x_16 (ite x_15 0 1) x_65) (ite x_16 x_65 (ite x_15 2 3))) 1) (/ 1 2))))) (and (and (and (and (and (and (and (and (and (and (and (and (and (and (and (and (and (and (and (and (and (and (and (and (and (and (and (and (and (and (and (and (and (and (and (and (and (and (and (and (and (and (and (and (and (and (and (and (and (and (and (and (and (and (and (and (and (and (and (and (and (and (and (and (and (and (and (and (and (and (and (and (and (and (and (and (and (and (and (and (and (and (and (and (and (and (and (and (and (and (and (and (and (and (and (and (and (and (and (and (and (and (and (and (and (and (and (and (and (and (and (and (and (and (and (and (and (and (and (and (and (and (and (and (and (and (and (and (and (and (and (and (and (and (and (and (and (and (and (and (and (and (and (and (and (and (and (and (and (<= x_34 2) (>= x_34 0)) (<= x_10 2)) (>= x_10 0)) (<= x_5 2)) (>= x_5 0)) (<= x_0 2)) (>= x_0 0)) (>= x_2 0)) (>= x_3 0)) (>= x_4 0)) (>= x_7 0)) (>= x_8 0)) (>= x_9 0)) (>= x_12 0)) (>= x_13 0)) (>= x_14 0)) (>= x_19 0)) (> x_20 0)) (>= x_20 0)) (>= x_26 0)) (>= x_32 0)) (>= x_39 0)) (>= x_40 0)) (>= x_41 0)) (>= x_45 0)) (or (or (or ?v_177 (= x_54 1)) (= x_54 2)) ?v_167)) (not (< x_54 0))) (<= x_54 3)) (or (or (or (= x_55 0) (= x_55 1)) (= x_55 2)) (= x_55 3))) (not (< x_55 0))) (<= x_55 3)) (or (or (or ?v_173 (= x_56 1)) (= x_56 2)) ?v_165)) (not (< x_56 0))) (<= x_56 3)) (or (or (or (= x_57 0) (= x_57 1)) (= x_57 2)) (= x_57 3))) (not (< x_57 0))) (<= x_57 3)) (or (or (or ?v_175 (= x_58 1)) (= x_58 2)) ?v_166)) (not (< x_58 0))) (<= x_58 3)) (or (or (or (= x_59 0) (= x_59 1)) (= x_59 2)) (= x_59 3))) (not (< x_59 0))) (<= x_59 3)) (>= x_60 0)) (>= x_63 0)) (>= x_66 0)) (>= x_69 0)) (not (<= x_72 (* x_20 3)))) (>= x_72 0)) (>= x_74 0)) (>= x_75 0)) (>= x_76 0)) (or (or (or ?v_111 (= x_82 1)) (= x_82 2)) ?v_101)) (not (< x_82 0))) (<= x_82 3)) (or (or (or ?v_107 (= x_83 1)) (= x_83 2)) ?v_99)) (not (< x_83 0))) (<= x_83 3)) (or (or (or ?v_109 (= x_84 1)) (= x_84 2)) ?v_100)) (not (< x_84 0))) (<= x_84 3)) (>= x_85 0)) (>= x_94 0)) (>= x_95 0)) (>= x_96 0)) (>= x_97 0)) (or (or (or ?v_46 (= x_103 1)) (= x_103 2)) ?v_36)) (not (< x_103 0))) (<= x_103 3)) (or (or (or ?v_42 (= x_104 1)) (= x_104 2)) ?v_34)) (not (< x_104 0))) (<= x_104 3)) (or (or (or ?v_44 (= x_105 1)) (= x_105 2)) ?v_35)) (not (< x_105 0))) (<= x_105 3)) (>= x_106 0)) (>= x_116 0)) (>= x_117 0)) (>= x_118 0)) (or (or ?v_3 ?v_93) (and ?v_76 ?v_79))) (or (or ?v_7 ?v_157) (and ?v_140 ?v_143))) (or (or ?v_11 ?v_223) (and ?v_206 ?v_209))) (or ?v_2 (and ?v_0 ?v_1))) (or (not ?v_48) (and (or x_37 ?v_0) (or x_38 ?v_1)))) ?v_94) ?v_96) (< (- x_39 x_40) x_20)) (< (- x_39 x_41) x_20)) (or ?v_2 (and (and (not x_37) (not x_38)) (not x_42)))) (or ?v_6 (and ?v_4 ?v_5))) (or ?v_3 (and (or x_30 ?v_4) (or x_31 ?v_5)))) ?v_158) ?v_160) (< (- x_32 x_13) x_20)) (< (- x_32 x_14) x_20)) (or ?v_6 (and (and ?v_50 ?v_52) ?v_54))) (or ?v_10 (and ?v_8 ?v_9))) (or ?v_7 (and (or x_24 ?v_8) (or x_25 ?v_9)))) ?v_224) ?v_226) (< (- x_26 x_8) x_20)) (< (- x_26 x_9) x_20)) (or ?v_10 (and (and ?v_114 ?v_116) ?v_118))) (or ?v_14 (and ?v_12 ?v_13))) (or ?v_11 (and (or x_17 ?v_12) (or x_18 ?v_13)))) (not (<= x_19 x_3))) (not (<= x_19 x_4))) (< (- x_19 x_3) x_20)) (< (- x_19 x_4) x_20)) (or ?v_14 (and (and ?v_180 ?v_182) ?v_184))) (= x_64 (ite x_51 2 1))) (= x_65 (ite x_15 1 2))) (= x_67 ?v_15)) (= x_68 ?v_15)) (= x_70 (+ (ite ?v_18 (ite ?v_17 ?v_19 x_67) (ite ?v_17 x_67 ?v_20)) x_55))) (= x_71 (+ (ite ?v_18 (ite ?v_17 ?v_19 x_68) (ite ?v_17 x_68 ?v_20)) x_55))) (= x_87 (ite x_50 2 1))) (= x_88 (ite x_22 1 2))) (= x_89 ?v_21)) (= x_90 ?v_21)) (= x_91 (+ (ite ?v_24 (ite ?v_23 ?v_25 x_89) (ite ?v_23 x_89 ?v_26)) x_54))) (= x_92 (+ (ite ?v_24 (ite ?v_23 ?v_25 x_90) (ite ?v_23 x_90 ?v_26)) x_54))) (= x_109 (ite x_80 2 1))) (= x_110 (ite x_28 1 2))) (= x_111 ?v_27)) (= x_112 ?v_27)) (= x_113 (+ (ite ?v_30 (ite ?v_29 ?v_31 x_111) (ite ?v_29 x_111 ?v_32)) x_82))) (= x_114 (+ (ite ?v_30 (ite ?v_29 ?v_31 x_112) (ite ?v_29 x_112 ?v_32)) x_82))) (or (or (and (and (and (and (and (and (or (and (and (and (and (and (and (and (and (and (and ?v_33 ?v_37) ?v_60) ?v_38) ?v_39) (= x_103 (ite ?v_40 (ite (not (< x_113 3)) 3 x_113) x_82))) (= x_35 ?v_41)) (= x_36 ?v_43)) (= x_99 ?v_45)) ?v_72) ?v_47) (and (and (and (and (and (and (and (and (and (and ?v_33 (not ?v_37)) x_107) (= x_97 x_85)) ?v_38) ?v_39) (= x_103 (ite ?v_40 (ite (not (< x_114 3)) 3 x_114) x_82))) (= x_35 (or ?v_41 ?v_42))) (= x_36 (or ?v_43 ?v_44))) (= x_99 (or ?v_45 ?v_46))) ?v_47)) ?v_70) ?v_71) ?v_90) ?v_73) ?v_74) ?v_75) (and (and (and (and (and (and (and (or (and (and (and (and (and (and (and (and (and (and (and ?v_48 (or (or (and (and (and ?v_49 ?v_4) ?v_50) ?v_56) (and (and (and ?v_51 ?v_5) ?v_52) ?v_58)) (and (and ?v_40 ?v_54) ?v_59))) (not x_108)) (or (or (or (or ?v_55 ?v_64) x_30) x_28) (not (< x_97 x_13)))) (or (or (or (or ?v_57 ?v_65) x_31) x_29) (not (< x_97 x_14)))) (or (or (or ?v_66 x_33) x_78) (not (< x_97 x_94)))) (or (or (or (and (and (and (and ?v_50 ?v_4) ?v_56) ?v_77) ?v_78) (and (and (and (and ?v_52 ?v_5) ?v_58) ?v_80) ?v_81)) (and (and (and (and ?v_54 ?v_40) ?v_59) ?v_82) ?v_83)) (and (< x_32 ?v_67) ?v_60))) (= x_37 (or x_30 ?v_61))) (= x_38 (or x_31 ?v_62))) (= x_42 (or x_33 ?v_63))) ?v_68) ?v_69) (and (and (and (and (and (and (and (and (and ?v_48 (or (or (or ?v_55 x_30) x_28) ?v_64)) (or (or (or ?v_57 x_31) x_29) ?v_65)) (or (or x_33 x_78) ?v_66)) x_108) (= x_97 ?v_67)) ?v_68) ?v_69) ?v_70) ?v_71)) ?v_88) ?v_89) ?v_47) ?v_72) ?v_73) ?v_74) ?v_75)) (and (and (and (and (and (and (and (or (and (and (and (and (and (and (and (and (and (and (and ?v_84 ?v_85) (not x_98)) (or (or (or ?v_55 x_80) x_28) (<= x_97 x_13))) (or (or (or ?v_57 x_81) x_29) (<= x_97 x_14))) (or (or x_79 x_78) (<= x_97 x_94))) (or (or (or (and (and (and (and (not x_80) ?v_4) ?v_76) ?v_77) ?v_78) (and (and (and (and (not x_81) ?v_5) ?v_79) ?v_80) ?v_81)) (and (and (and (not x_79) ?v_40) ?v_82) ?v_83)) ?v_60)) (= x_101 (or x_80 (= x_13 x_97)))) (= x_102 (or x_81 (= x_14 x_97)))) (= x_100 (or x_79 (= x_94 x_97)))) ?v_86) ?v_87) (and (and (and (and (and (and (and ?v_84 (not ?v_85)) x_98) ?v_86) ?v_87) (= x_97 x_12)) ?v_73) ?v_74)) ?v_88) ?v_89) ?v_47) ?v_72) ?v_70) ?v_71) ?v_90))) (or (or (and ?v_91 (= x_34 (ite (not x_86) x_10 1))) (and ?v_92 (= x_34 (ite ?v_93 x_10 2)))) (and (and ?v_6 ?v_3) (= x_34 x_10)))) (or (and (and ?v_95 ?v_94) (not (<= x_40 ?v_97))) (and ?v_98 (= x_40 x_13)))) (or (and (and ?v_95 ?v_96) (not (<= x_41 ?v_97))) (and ?v_98 (= x_41 x_14)))) (or (and (and ?v_95 (= x_39 (+ x_32 x_72))) x_115) (and (and ?v_98 (not x_115)) (= x_39 x_32)))) (or (and (and (and (and ?v_63 (not (<= x_116 x_97))) (not (<= x_117 x_97))) (< x_116 x_117)) (< x_117 x_118)) (and (and (and (not ?v_63) (= x_116 x_94)) (= x_117 x_95)) (= x_118 x_96)))) (or (or (and (and (and (and (and (and (or (and (and (and (and (and (and (and (and (and (and ?v_91 ?v_102) ?v_124) ?v_103) ?v_104) (= x_82 (ite ?v_105 (ite (not (< x_91 3)) 3 x_91) x_54))) (= x_28 ?v_106)) (= x_29 ?v_108)) (= x_78 ?v_110)) ?v_136) ?v_112) (and (and (and (and (and (and (and (and (and (and ?v_91 (not ?v_102)) x_86) (= x_12 x_60)) ?v_103) ?v_104) (= x_82 (ite ?v_105 (ite (not (< x_92 3)) 3 x_92) x_54))) (= x_28 (or ?v_106 ?v_107))) (= x_29 (or ?v_108 ?v_109))) (= x_78 (or ?v_110 ?v_111))) ?v_112)) ?v_134) ?v_135) ?v_154) ?v_137) ?v_138) ?v_139) (and (and (and (and (and (and (and (or (and (and (and (and (and (and (and (and (and (and (and ?v_92 (or (or (and (and (and ?v_113 ?v_8) ?v_114) ?v_120) (and (and (and ?v_115 ?v_9) ?v_116) ?v_122)) (and (and ?v_105 ?v_118) ?v_123))) ?v_93) (or (or (or (or ?v_119 ?v_128) x_24) x_22) (not (< x_12 x_8)))) (or (or (or (or ?v_121 ?v_129) x_25) x_23) (not (< x_12 x_9)))) (or (or (or ?v_130 x_27) x_46) (not (< x_12 x_74)))) (or (or (or (and (and (and (and ?v_114 ?v_8) ?v_120) ?v_141) ?v_142) (and (and (and (and ?v_116 ?v_9) ?v_122) ?v_144) ?v_145)) (and (and (and (and ?v_118 ?v_105) ?v_123) ?v_146) ?v_147)) (and (< x_26 ?v_131) ?v_124))) (= x_30 (or x_24 ?v_125))) (= x_31 (or x_25 ?v_126))) (= x_33 (or x_27 ?v_127))) ?v_132) ?v_133) (and (and (and (and (and (and (and (and (and ?v_92 (or (or (or ?v_119 x_24) x_22) ?v_128)) (or (or (or ?v_121 x_25) x_23) ?v_129)) (or (or x_27 x_46) ?v_130)) x_11) (= x_12 ?v_131)) ?v_132) ?v_133) ?v_134) ?v_135)) ?v_152) ?v_153) ?v_112) ?v_136) ?v_137) ?v_138) ?v_139)) (and (and (and (and (and (and (and (or (and (and (and (and (and (and (and (and (and (and (and ?v_148 ?v_149) (not x_77)) (or (or (or ?v_119 x_50) x_22) (<= x_12 x_8))) (or (or (or ?v_121 x_52) x_23) (<= x_12 x_9))) (or (or x_48 x_46) (<= x_12 x_74))) (or (or (or (and (and (and (and (not x_50) ?v_8) ?v_140) ?v_141) ?v_142) (and (and (and (and (not x_52) ?v_9) ?v_143) ?v_144) ?v_145)) (and (and (and (not x_48) ?v_105) ?v_146) ?v_147)) ?v_124)) (= x_80 (or x_50 (= x_8 x_12)))) (= x_81 (or x_52 (= x_9 x_12)))) (= x_79 (or x_48 (= x_74 x_12)))) ?v_150) ?v_151) (and (and (and (and (and (and (and ?v_148 (not ?v_149)) x_77) ?v_150) ?v_151) (= x_12 x_7)) ?v_137) ?v_138)) ?v_152) ?v_153) ?v_112) ?v_136) ?v_134) ?v_135) ?v_154))) (or (or (and ?v_155 (= x_10 (ite (not x_61) x_5 1))) (and ?v_156 (= x_10 (ite ?v_157 x_5 2)))) (and (and ?v_10 ?v_7) (= x_10 x_5)))) (or (and (and ?v_159 ?v_158) (not (<= x_13 ?v_161))) (and ?v_162 (= x_13 x_8)))) (or (and (and ?v_159 ?v_160) (not (<= x_14 ?v_161))) (and ?v_162 (= x_14 x_9)))) (or (and (and ?v_159 (= x_32 (+ x_26 x_72))) x_93) (and (and ?v_162 (not x_93)) (= x_32 x_26)))) (or (and (and (and (and ?v_127 ?v_163) ?v_164) (< x_94 x_95)) (< x_95 x_96)) (and (and (and (not ?v_127) (= x_94 x_74)) (= x_95 x_75)) (= x_96 x_76)))) (or (or (and (and (and (and (and (and (or (and (and (and (and (and (and (and (and (and (and ?v_155 ?v_168) ?v_190) ?v_169) ?v_170) (= x_54 (ite ?v_171 (ite (not (< x_70 3)) 3 x_70) x_55))) (= x_22 ?v_172)) (= x_23 ?v_174)) (= x_46 ?v_176)) ?v_202) ?v_178) (and (and (and (and (and (and (and (and (and (and ?v_155 (not ?v_168)) x_61) (= x_7 x_45)) ?v_169) ?v_170) (= x_54 (ite ?v_171 (ite (not (< x_71 3)) 3 x_71) x_55))) (= x_22 (or ?v_172 ?v_173))) (= x_23 (or ?v_174 ?v_175))) (= x_46 (or ?v_176 ?v_177))) ?v_178)) ?v_200) ?v_201) ?v_220) ?v_203) ?v_204) ?v_205) (and (and (and (and (and (and (and (or (and (and (and (and (and (and (and (and (and (and (and ?v_156 (or (or (and (and (and ?v_179 ?v_12) ?v_180) ?v_186) (and (and (and ?v_181 ?v_13) ?v_182) ?v_188)) (and (and ?v_171 ?v_184) ?v_189))) ?v_157) (or (or (or (or ?v_185 ?v_194) x_17) x_15) (not (< x_7 x_3)))) (or (or (or (or ?v_187 ?v_195) x_18) x_16) (not (< x_7 x_4)))) (or (or (or ?v_196 x_21) x_47) (not (< x_7 x_63)))) (or (or (or (and (and (and (and ?v_180 ?v_12) ?v_186) ?v_207) ?v_208) (and (and (and (and ?v_182 ?v_13) ?v_188) ?v_210) ?v_211)) (and (and (and (and ?v_184 ?v_171) ?v_189) ?v_212) ?v_213)) (and (< x_19 ?v_197) ?v_190))) (= x_24 (or x_17 ?v_191))) (= x_25 (or x_18 ?v_192))) (= x_27 (or x_21 ?v_193))) ?v_198) ?v_199) (and (and (and (and (and (and (and (and (and ?v_156 (or (or (or ?v_185 x_17) x_15) ?v_194)) (or (or (or ?v_187 x_18) x_16) ?v_195)) (or (or x_21 x_47) ?v_196)) x_6) (= x_7 ?v_197)) ?v_198) ?v_199) ?v_200) ?v_201)) ?v_218) ?v_219) ?v_178) ?v_202) ?v_203) ?v_204) ?v_205)) (and (and (and (and (and (and (and (or (and (and (and (and (and (and (and (and (and (and (and ?v_214 ?v_215) (not x_43)) (or (or (or ?v_185 x_51) x_15) (<= x_7 x_3))) (or (or (or ?v_187 x_53) x_16) (<= x_7 x_4))) (or (or x_49 x_47) (<= x_7 x_63))) (or (or (or (and (and (and (and (not x_51) ?v_12) ?v_206) ?v_207) ?v_208) (and (and (and (and (not x_53) ?v_13) ?v_209) ?v_210) ?v_211)) (and (and (and (not x_49) ?v_171) ?v_212) ?v_213)) ?v_190)) (= x_50 (or x_51 (= x_3 x_7)))) (= x_52 (or x_53 (= x_4 x_7)))) (= x_48 (or x_49 (= x_63 x_7)))) ?v_216) ?v_217) (and (and (and (and (and (and (and ?v_214 (not ?v_215)) x_43) ?v_216) ?v_217) (= x_7 x_2)) ?v_203) ?v_204)) ?v_218) ?v_219) ?v_178) ?v_202) ?v_200) ?v_201) ?v_220))) (or (or (and ?v_221 (= x_5 (ite (not x_62) x_0 1))) (and ?v_222 (= x_5 (ite ?v_223 x_0 2)))) (and (and ?v_14 ?v_11) (= x_5 x_0)))) (or (and (and ?v_225 ?v_224) (not (<= x_8 ?v_227))) (and ?v_228 (= x_8 x_3)))) (or (and (and ?v_225 ?v_226) (not (<= x_9 ?v_227))) (and ?v_228 (= x_9 x_4)))) (or (and (and ?v_225 (= x_26 (+ x_19 x_72))) x_73) (and (and ?v_228 (not x_73)) (= x_26 x_19)))) (or (and (and (and (and ?v_193 ?v_229) ?v_230) (< x_74 x_75)) (< x_75 x_76)) (and (and (and (not ?v_193) (= x_74 x_63)) (= x_75 x_66)) (= x_76 x_69)))) ?v_48) x_108) (or (not (< x_97 x_40)) (not (< x_97 x_41))))))))))))))))))))))))))))
(check-sat)
(exit)
